#######################################
### Exact MIP solver for the HHCRSP ###
#######################################
-- Instance file: new-instances/HHCRSP_75_15_88_0.8_R_RC.txt
-- Max threads: 4
-- Time limit: 999999 seconds
-- Use initial solution: No
Trivial flow violations prevented generating 19916 variables.
Model exported.
Version identifier: 20.1.0.0 | 2020-11-10 | 9bedb6d68
CPXPARAM_Threads                                 4
CPXPARAM_TimeLimit                               999999
Parallel mode: deterministic, using up to 4 threads for concurrent optimization:
 * Starting dual Simplex on 1 thread...
 * Starting Barrier on 3 threads...
Tried aggregator 1 time.
LP Presolve eliminated 3126 rows and 757 columns.
Reduced LP has 22922 rows, 21914 columns, and 235843 nonzeros.
Presolve time = 0.11 sec. (63.16 ticks)
Symmetry aggregator did 17730 additional substitutions.

Iteration log . . .
Iteration:     1   Dual objective     =             0.000000
Iteration:   391   Dual objective     =           184.666667

Dual crossover.
  Dual:  Fixing 173 variables.
      172 DMoves:  Infeasibility  4.35207828e-14  Objective  1.85000883e+02
        0 DMoves:  Infeasibility  3.90798907e-14  Objective  1.85000883e+02
  Dual:  Pushed 7, exchanged 166.
  Primal:  Fixing 61 variables.
       60 PMoves:  Infeasibility  6.66133815e-16  Objective  1.85000883e+02
        0 PMoves:  Infeasibility  8.88178420e-16  Objective  1.85000883e+02
  Primal:  Pushed 36, exchanged 25.

Dual simplex solved model.


Solution status from MIP model:
-- Processing time: 0.23 sec.
-- Memory used: 86.3984 MB
-- Best bound: inf
-- Obj value: 185.001
-- Gap: inf%
-- Total distance: 555.003
-- Total tardiness: 0
-- Largest tardiness: 0
